robust/generate/spp_dkp_Lefebvre_et_al_2026/src/shortest_path_10_10.kp
52
348

[3.98 0.13 1.02 2.99 0.48 3.0 0.26 4.64 4.74 2.52 3.08 3.7 3.7 2.02 3.72 2.05 4.48 3.3 1.78 4.15 1.84 0.46 1.57 2.01 3.59 3.18 0.97 3.91 3.8 1.91 2.47 3.85 2.15 3.59 0.38 2.36 2.1 1.19 4.16 0.1 2.18 0.23 2.41 4.15 1.62 4.36 0.59 0.76 3.81 3.21 3.48 2.61 2.28 4.35 1.81 2.55 3.36 2.06 3.09 2.87 2.2 4.43 3.6 4.49 4.31 1.55 3.34 0.28 0.98 3.49 3.63 1.43]

[25 39 77 60 15 85 72 89 69 23 51 18 42 11 37 9 22 92 15 52 97 96 64 56 69 68 89 91 66 60 90 25 30 83 57 83 66 56 59 91 50 75 17 16 21 65 32 1 58 58 57 92 75 1 1 65 71 75 96 46 19 74 61 77 49 53 82 24 53 49 6 14]
